* Problem:    stein9inf-pow2-prescaled
* Class:      LP
* Rows:       14
* Columns:    23
* Non-zeros:  68
* Format:     Free MPS
*
NAME stein9inf-pow2-prescaled
ROWS
 N R0000000
 E R0000001
 E R0000002
 E R0000003
 E R0000004
 E R0000005
 E R0000006
 E R0000007
 E R0000008
 E R0000009
 E R0000010
 E R0000011
 E R0000012
 E R0000013
 E R0000014
COLUMNS
 c0 R0000000 1 R0000014 1
 c0 R0000013 -1 R0000010 -1
 c0 R0000007 -1 R0000003 -1
 c0 R0000002 -1
 c1 R0000000 1 R0000014 1
 c1 R0000013 -1 R0000011 -1
 c1 R0000008 -1 R0000003 -1
 c1 R0000001 -1
 c2 R0000000 1 R0000014 1
 c2 R0000013 -1 R0000012 -1
 c2 R0000009 -1 R0000002 -1
 c2 R0000001 -1
 c3 R0000000 1 R0000014 1
 c3 R0000013 -1 R0000010 -1
 c3 R0000006 -1 R0000005 -1
 c3 R0000001 -1
 c4 R0000000 1 R0000014 1
 c4 R0000013 -1 R0000011 -1
 c4 R0000006 -1 R0000004 -1
 c4 R0000002 -1
 c5 R0000000 1 R0000014 1
 c5 R0000013 -1 R0000012 -1
 c5 R0000005 -1 R0000004 -1
 c5 R0000003 -1
 c6 R0000000 1 R0000014 1
 c6 R0000013 -1 R0000010 -1
 c6 R0000009 -1 R0000008 -1
 c6 R0000004 -1
 c7 R0000000 1 R0000014 1
 c7 R0000013 -1 R0000011 -1
 c7 R0000009 -1 R0000007 -1
 c7 R0000005 -1
 c8 R0000000 1 R0000014 1
 c8 R0000013 -1 R0000012 -1
 c8 R0000008 -1 R0000007 -1
 c8 R0000006 -1
 c9 R0000001 2
 c10 R0000002 2
 c11 R0000003 2
 c12 R0000004 2
 c13 R0000005 2
 c14 R0000006 2
 c15 R0000007 2
 c16 R0000008 2
 c17 R0000009 2
 c18 R0000010 2
 c19 R0000011 2
 c20 R0000012 2
 c21 R0000013 2
 c22 R0000014 2
RHS
 RHS1 R0000001 -1 R0000002 -1
 RHS1 R0000003 -1 R0000004 -1
 RHS1 R0000005 -1 R0000006 -1
 RHS1 R0000007 -1 R0000008 -1
 RHS1 R0000009 -1 R0000010 -1
 RHS1 R0000011 -1 R0000012 -1
 RHS1 R0000013 -4 R0000014 4.5
BOUNDS
 UP BND1 c0 1
 UP BND1 c1 1
 UP BND1 c2 1
 UP BND1 c3 1
 UP BND1 c4 1
 UP BND1 c5 1
 UP BND1 c6 1
 UP BND1 c7 1
 UP BND1 c8 1
ENDATA
